 &control
    calculation       = 'scf'
    restart_mode      = 'from_scratch'
    prefix = 'M_h-BNCH_band'
    outdir = '/scratch/achkrebt/M_h-BNCH_band'
    pseudo_dir='/home/zibrahim/common/pseudo/'
    verbosity         = 'high'
    wf_collect        = .true.
 /
 &system 
    ibrav             =  4
    celldm(1)         =  4.75
    nat               =  6
    celldm(3)         =  7
    ntyp              =  4
    nosym             = .false.
    ecutwfc           =  60
    nbnd              =  15
    smearing          = 'fermi-dirac'
    degauss           = 0.000735
 /
 &electrons
    diago_thr_init=1.0e-3,
    electron_maxstep = 60,
    diagonalization='david' 
    mixing_mode = 'plain'
    mixing_beta = 0.7
    conv_thr =  1.0d-10
 /
ATOMIC_SPECIES
 H   0.5 H.vbc.UPF
 C   0.5 C.pz-vbc.UPF
 B   10.81    B.pz-vbc.UPF
 N   14.007   N.pz-vbc.UPF
ATOMIC_POSITIONS (angstrom)
H  3.770388377 2.188781198 14.11129358
N  3.770378338 2.190240225 13.06287126
B  3.770383558 3.641753044 12.54128656
C  3.77038989  3.643311728 10.93456357
C  3.770390252 5.094680817 10.46505951
H  3.770392067 5.095828627 9.341747648
K_POINTS {automatic}
 10 10 1 0 0 0 ´
! 6  6 1 0 0 0
! 4  4 1 0 0 0

